Co
 1.0000000000000000
     5.3245140623347025    0.0000000000000000    0.0000000000000000
     2.6622570311673512    4.6111644407893317    0.0000000000000000
     0.0000000000000000    0.0000000000000000   29.7965967026638410
 Co 
  45
Direct
 -0.1111111111111111  0.2222222222222222  0.4027305574440718
  0.2222222222222223  0.2222222222222222  0.4027305574440718
  0.5555555555555556  0.2222222222222222  0.4027305574440718
 -0.1111111111111111  0.5555555555555556  0.4027305574440718
  0.2222222222222222  0.5555555555555556  0.4027305574440718
  0.5555555555555555  0.5555555555555556  0.4027305574440718
 -0.1111111111111111  0.8888888888888887  0.4027305574440718
  0.2222222222222223  0.8888888888888887  0.4027305574440718
  0.5555555555555556  0.8888888888888887  0.4027305574440718
  0.0000000000000000  0.0000000000000000  0.4513652787220359
  0.3333333333333333  0.0000000000000000  0.4513652787220359
  0.6666666666666666  0.0000000000000000  0.4513652787220359
  0.0000000000000000  0.3333333333333333  0.4513652787220359
  0.3333333333333333  0.3333333333333333  0.4513652787220359
  0.6666666666666665  0.3333333333333333  0.4513652787220359
  0.0000000000000000  0.6666666666666666  0.4513652787220359
  0.3333333333333333  0.6666666666666666  0.4513652787220359
  0.6666666666666666  0.6666666666666666  0.4513652787220359
  0.1111111111111111  0.1111111111111111  0.5000000000000000
  0.4444444444444444  0.1111111111111111  0.5000000000000000
  0.7777777777777778  0.1111111111111111  0.5000000000000000
  0.1111111111111111  0.4444444444444444  0.5000000000000000
  0.4444444444444444  0.4444444444444444  0.5000000000000000
  0.7777777777777778  0.4444444444444444  0.5000000000000000
  0.1111111111111111  0.7777777777777778  0.5000000000000000
  0.4444444444444445  0.7777777777777778  0.5000000000000000
  0.7777777777777778  0.7777777777777778  0.5000000000000000
 -0.1111111111111111  0.2222222222222222  0.5486347212779642
  0.2222222222222223  0.2222222222222222  0.5486347212779642
  0.5555555555555556  0.2222222222222222  0.5486347212779642
 -0.1111111111111111  0.5555555555555556  0.5486347212779642
  0.2222222222222222  0.5555555555555556  0.5486347212779642
  0.5555555555555555  0.5555555555555556  0.5486347212779642
 -0.1111111111111111  0.8888888888888887  0.5486347212779642
  0.2222222222222223  0.8888888888888887  0.5486347212779642
  0.5555555555555556  0.8888888888888887  0.5486347212779642
  0.0000000000000000  0.0000000000000000  0.5972694425559282
  0.3333333333333333  0.0000000000000000  0.5972694425559282
  0.6666666666666666  0.0000000000000000  0.5972694425559282
  0.0000000000000000  0.3333333333333333  0.5972694425559282
  0.3333333333333333  0.3333333333333333  0.5972694425559282
  0.6666666666666665  0.3333333333333333  0.5972694425559282
  0.0000000000000000  0.6666666666666666  0.5972694425559282
  0.3333333333333333  0.6666666666666666  0.5972694425559282
  0.6666666666666666  0.6666666666666666  0.5972694425559282
